WARNING: for repeatability, setting FPU to use double precision
============================[ Problem Statistics ]=============================
|                                                                             |
|  Number of variables:         12432                                         |
|  Number of clauses:          146848                                         |
|  Parse time:                   0.02 s                                       |
|                                                                             |
c ============================[ Search Statistics ]==============================
c | Conflicts |          ORIGINAL         |          LEARNT          | Progress |
c |           |    Vars  Clauses Literals |    Limit  Clauses Lit/Cl |          |
c ===============================================================================
c Switched to VSIDS.
c Switched to LRB.
c Switched to VSIDS.
c Switched to LRB.
c Switched to VSIDS.
c Switched to LRB.
c Switched to VSIDS.
c Switched to LRB.
c Switched to VSIDS.
c Switched to LRB.
c Switched to VSIDS.
c Switched to LRB.
c Switched to VSIDS.
c Switched to LRB.
c Switched to VSIDS.
c Switched to LRB.
c Switched to VSIDS.
c Switched to LRB.
c Switched to VSIDS.
c Switched to LRB.
c Switched to VSIDS.
c Switched to LRB.
c Switched to VSIDS.
c Switched to LRB.
c Switched to VSIDS.
c Switched to LRB.
c Switched to VSIDS.
c Switched to LRB.
c Switched to VSIDS.
c Switched to LRB.
c Switched to VSIDS.
c Switched to LRB.
c Switched to VSIDS.
c Switched to LRB.
c Switched to VSIDS.
c ===============================================================================
restarts                  : 115513
conflicts                 : 20203450       (5745 /sec)
decisions                 : 186035939      (0.00 % random) (52896 /sec)
propagations              : 8895859101     (2529388 /sec)
conflict literals         : 3057627542     (22.75 % deleted)

conflicts w/ DIP found    : 14781802       (73.16 % of conflicts)
conflicts w/ dangerous DIP: 0              (0.00 % of conflicts)
conflicts w/ DIP-learning : 108218         (0.54 % of conflicts)
decisions on ext vars     : 1249809        (0.67 % of decisions)
total ext vars            : 15292       
tried delete ext vars     : 0           
deleted ext vars          : 0           
max ext vars              : 15292       

Memory used               : 713.00 MB
CPU time                  : 3517 s
DIP computation time      : 144.326 s (4.10 % of total time)
ER_sel time               : 36.0376 s
ER_add time               : 0.062543 s
ER_delC time              : 0 s
ER_delV time              : 0 s
ER_sub time               : 41.1728 s
ER_stat time              : 0 s

INDETERMINATE
